Fe Lu O 
 1.0000000000000000
    31.2710227687530065    0.0000000000000000    0.0000000000000000
     0.0000000000000000   34.9584869385000943    0.0000000000000000
     0.0000000000000000    0.0000000000000000    6.0181129455644564
 Fe  Lu  O  
 108 108 324
Direct
  0.7223166548333333  0.6666666550000004  0.6669492745000003
  0.3333335876666666  0.6666666650000003  0.1661021630000001
  0.1666669206666667  0.6666666650000003  0.6661021620000001
  0.1666669206666667  0.3333333316666666  0.6661021620000001
  0.1666669206666668 -0.0000000016666665  0.6661021620000001
  0.2776839291666668  0.6666666633333335  0.6669489975000006
  0.2776839291666668  0.3333333300000011  0.6669489975000006
  0.3333335876666666  0.3333333316666666  0.1661021630000001
  0.2776833731666666  0.8333333500000003  0.3330509944999999
  0.3333331146666665  0.8333333483333336  0.8338980990000002
  0.3333331146666664  0.5000000150000001  0.8338980990000002
  0.3333331146666664  0.1666666816666674  0.8338980990000002
  0.2223161156666668  0.8333333533333336  0.8330512669999999
  0.2223161156666667  0.5000000200000003  0.8330512669999999
  0.2223161156666666  0.1666666866666666  0.8330512669999999
  0.3333335876666667 -0.0000000016666665  0.1661021630000001
  0.2776833731666665  0.1666666833333342  0.3330509944999999
  0.1110167061666664  0.5000000166666668  0.8330509935000003
  0.2223166546666668  0.3333333216666665  0.1669492740000003
  0.0556499881666666 -0.0000000116666665  0.6669492745000003
  0.1110172621666667  0.6666666633333335  0.1669489965000004
  0.1110172621666667  0.3333333300000003  0.1669489965000004
  0.1110172621666668 -0.0000000033333333  0.1669489965000004
  0.1110167061666665  0.8333333500000004  0.8330509935000003
  0.1110167061666664  0.1666666833333342  0.8330509935000003
  0.2776839291666668 -0.0000000033333333  0.6669489975000006
  0.0556499881666665  0.3333333216666665  0.6669492745000003
  0.1666664481666666  0.1666666816666675  0.3338980995000003
  0.0556494486666668  0.8333333533333336  0.3330512660000001
  0.0556494486666667  0.5000000200000000  0.3330512660000001
  0.0556494486666666  0.1666666866666666  0.3330512660000001
  0.2223166546666668  0.6666666550000006  0.1669492740000003
  0.1666664481666667  0.8333333483333336  0.3338980995000003
  0.1666664481666667  0.5000000150000001  0.3338980995000003
  0.3889833215000000  0.6666666550000004  0.6669492745000003
  0.5556499880000002 -0.0000000116666665  0.1669492740000003
  0.3889833215000001 -0.0000000116666665  0.6669492745000003
  0.5000002540000000  0.3333333316666666  0.6661021620000001
  0.5000002540000000 -0.0000000016666665  0.6661021620000001
  0.6110172625000000  0.6666666633333334  0.6669489975000006
  0.6110172625000000  0.3333333300000011  0.6669489975000006
  0.6110167065000001  0.8333333500000003  0.3330509944999999
  0.6110167065000000  0.5000000166666668  0.3330509944999999
  0.5000002540000000  0.6666666650000002  0.6661021620000001
  0.6666669210000000 -0.0000000016666665  0.1661021630000001
  0.6666664480000001  0.5000000150000001  0.8338980990000002
  0.6666664480000000  0.1666666816666674  0.8338980990000002
  0.5556494490000001  0.8333333533333336  0.8330512669999999
  0.5556494490000000  0.5000000200000003  0.8330512669999999
  0.5556494490000000  0.1666666866666666  0.8330512669999999
  0.6110167065000000  0.1666666833333342  0.3330509944999999
  0.6666664480000001  0.8333333483333336  0.8338980990000002
  0.6666669210000000  0.6666666650000002  0.1661021630000001
  0.6666669209999999  0.3333333316666666  0.1661021630000001
  0.4443500395000001  0.5000000166666668  0.8330509935000003
  0.4443505955000000  0.6666666633333334  0.1669489965000004
  0.4443505955000000  0.3333333300000002  0.1669489965000004
  0.4443505955000001 -0.0000000033333333  0.1669489965000004
  0.4443500395000001  0.8333333500000003  0.8330509935000003
  0.4443500395000000  0.1666666833333342  0.8330509935000003
  0.3889833215000000  0.3333333216666665  0.6669492745000003
  0.4999997814999999  0.5000000150000001  0.3338980995000003
  0.4999997814999999  0.1666666816666674  0.3338980995000003
  0.3889827820000001  0.8333333533333336  0.3330512660000001
  0.3889827820000000  0.5000000200000000  0.3330512660000001
  0.3889827820000000  0.1666666866666666  0.3330512660000001
  0.5556499880000002  0.6666666550000004  0.1669492740000003
  0.4999997815000000  0.8333333483333336  0.3338980995000003
  0.5556499880000001  0.3333333216666665  0.1669492740000003
  0.6110172625000001 -0.0000000033333333  0.6669489975000006
  0.2223166546666668 -0.0000000116666665  0.1669492740000003
  0.0556499881666665  0.6666666550000006  0.6669492745000003
  0.2776833731666665  0.5000000166666668  0.3330509944999999
  0.9443505958333336  0.6666666633333334  0.6669489975000006
  0.7223161153333333  0.1666666866666666  0.3330512660000001
  0.8889833213333334  0.6666666550000004  0.1669492740000003
  0.8333331148333334  0.8333333483333336  0.3338980995000003
  0.8889833213333334  0.3333333216666664  0.1669492740000003
  0.9443505958333336 -0.0000000033333333  0.6669489975000006
  0.7776833728333333  0.5000000166666668  0.8330509935000003
  0.0000002543333333  0.3333333316666665  0.1661021630000001
  0.0000002543333333  0.6666666650000002  0.1661021630000001
  0.8333335873333334  0.6666666650000002  0.6661021620000001
  0.8333335873333334  0.3333333316666666  0.6661021620000001
  0.7223161153333333  0.8333333533333336  0.3330512660000001
  0.8333335873333334 -0.0000000016666665  0.6661021620000001
  0.9443500398333333  0.8333333500000002  0.3330509944999999
  0.9443500398333333  0.5000000166666668  0.3330509944999999
  0.0000002543333333 -0.0000000016666665  0.1661021630000001
  0.9999997813333337  0.8333333483333336  0.8338980990000002
  0.9999997813333336  0.5000000150000000  0.8338980990000002
  0.9999997813333334  0.1666666816666673  0.8338980990000002
  0.8889827823333334  0.8333333533333336  0.8330512669999999
  0.8889827823333334  0.5000000200000003  0.8330512669999999
  0.8889827823333334  0.1666666866666666  0.8330512669999999
  0.9443500398333332  0.1666666833333341  0.3330509944999999
  0.9443505958333336  0.3333333300000010  0.6669489975000006
  0.8333331148333333  0.1666666816666673  0.3338980995000003
  0.7223161153333333  0.5000000200000000  0.3330512660000001
  0.7223166548333333  0.3333333216666665  0.6669492745000003
  0.8333331148333333  0.5000000150000001  0.3338980995000003
  0.7223166548333333 -0.0000000116666665  0.6669492745000003
  0.7776839288333335  0.6666666633333334  0.1669489965000004
  0.7776839288333335  0.3333333300000002  0.1669489965000004
  0.8889833213333335 -0.0000000116666665  0.1669492740000003
  0.7776833728333334  0.8333333500000002  0.8330509935000003
  0.7776833728333332  0.1666666833333341  0.8330509935000003
  0.7776839288333335 -0.0000000033333333  0.1669489965000004
  0.5555556220000000  0.4105231466666670  0.5000002510000005
  0.5000000000000001  0.9250645516666666  0.0000000000000000
  0.4999999999999999  0.2583978850000006  0.0000000000000000
  0.2222220976666667  0.2438565833333341  0.5000003279999999
  0.2777776921666668  0.9105232683333335  0.9999996515000003
  0.2777776921666667  0.5771899350000004  0.9999996515000003
  0.6666666114999998  0.2583978850000006  0.4999998345000002
  0.2777776921666666  0.2438566016666667  0.9999996514999998
  0.5555554309999999  0.5771899166666667  0.5000003279999999
  0.5555554309999999  0.9105232499999999  0.5000003279999999
  0.6111110255000002  0.5771899350000004  0.9999996515000003
  0.6111110255000002  0.9105232683333335  0.9999996515000003
  0.5555554309999998  0.2438565833333340  0.5000003279999999
  0.6111112230000000  0.7438564650000000  0.9999995840000000
  0.5555556220000000  0.0771898133333337  0.5000002510000005
  0.4999999999999999  0.5917312183333333  0.0000000000000000
  0.5555556220000001  0.7438564800000000  0.5000002510000005
  0.6111112229999999  0.4105231316666673  0.9999995840000000
  0.6666666115000000  0.5917312183333333  0.4999998345000002
  0.6111110255000002  0.2438566016666667  0.9999996514999998
  0.6111112229999999  0.0771897983333331  0.9999995840000000
  0.1666666666666665  0.5917312183333333  0.0000000000000000
  0.3888887645000000  0.5771899166666667  0.0000003284999998
  0.6666666665000001  0.7583978349999999  0.4999999995000002
  0.3888887645000000  0.2438565833333340  0.0000003284999998
  0.4999999999999999  0.0917311683333333  0.0000000000000000
  0.4999999999999999  0.4250645016666667  0.0000000000000000
  0.4444443590000000  0.2438566016666667  0.4999996520000002
  0.4444443590000000  0.5771899350000004  0.4999996519999997
  0.5000000000000001  0.7583978349999999  0.0000000000000000
  0.3888889555000000  0.7438564800000000  0.0000002515000005
  0.3888887645000002  0.9105232499999999  0.0000003284999998
  0.3888889554999999  0.0771898133333337  0.0000002515000005
  0.3888889555000000  0.4105231466666670  0.0000002515000005
  0.4444445564999997  0.0771897983333331  0.4999995845000001
  0.4444445564999998  0.4105231316666673  0.4999995845000001
  0.4444445564999998  0.7438564650000000  0.4999995845000001
  0.6666666664999999  0.0917311683333333  0.4999999995000002
  0.2222220976666668  0.9105232499999999  0.5000003279999999
 -0.0000000001666666  0.0917311683333332  0.4999999995000002
  0.2222220976666667  0.5771899166666667  0.5000003279999999
  0.2222222886666664  0.4105231466666670  0.5000002510000005
  0.6666666115000000  0.9250645516666666  0.4999998345000002
  0.2222222886666663  0.0771898133333338  0.5000002510000005
  0.6666666665000001  0.4250645016666667  0.4999999995000002
  0.2222222886666664  0.7438564800000002  0.5000002510000005
  0.8333333333333337  0.7583978349999999  0.0000000000000000
  0.4444443590000001  0.9105232683333335  0.4999996519999997
  0.7777776923333334  0.5771899350000004  0.4999996519999997
  0.7777776923333332  0.2438566016666666  0.4999996520000002
  0.8333333333333336  0.4250645016666666  0.0000000000000000
  0.7222220978333335  0.2438565833333340  0.0000003284999998
 -0.0000000001666664  0.7583978349999999  0.4999999995000002
  0.7777776923333334  0.9105232683333335  0.4999996519999997
 -0.0000000001666666  0.4250645016666666  0.4999999995000002
  0.7222220978333335  0.5771899166666667  0.0000003284999998
 -0.0000000551666667  0.9250645516666666  0.4999998345000002
  0.9444445563333335  0.0771897983333330  0.9999995840000000
 -0.0000000551666667  0.5917312183333332  0.4999998345000002
  0.7222222888333333  0.7438564800000000  0.0000002515000005
 -0.0000000551666667  0.2583978850000005  0.4999998345000002
  0.8333333333333335  0.2583978850000005  0.0000000000000000
  0.9444445563333335  0.7438564650000000  0.9999995840000000
  0.9444445563333335  0.4105231316666672  0.9999995840000000
  0.8888889553333336  0.7438564800000000  0.5000002510000005
  0.8333333333333336  0.5917312183333333  0.0000000000000000
  0.8888889553333335  0.0771898133333337  0.5000002510000005
  0.8888887643333335  0.9105232499999999  0.5000003279999999
  0.8888887643333333  0.2438565833333340  0.5000003279999999
  0.9444443588333334  0.9105232683333335  0.9999996515000003
  0.9444443588333334  0.5771899350000004  0.9999996515000003
  0.9444443588333332  0.2438566016666666  0.9999996514999998
  0.8888887643333334  0.5771899166666667  0.5000003279999999
  0.8888889553333336  0.4105231466666669  0.5000002510000005
  0.8333333333333337  0.9250645516666666  0.0000000000000000
  0.7222220978333336  0.9105232499999999  0.0000003284999998
  0.8333333333333335  0.0917311683333332  0.0000000000000000
  0.7222222888333333  0.4105231466666670  0.0000002515000005
  0.2777778896666666  0.4105231316666673  0.9999995840000000
  0.2777778896666666  0.7438564650000000  0.9999995840000000
  0.1666666666666665  0.2583978850000007  0.0000000000000000
  0.1666666666666665  0.9250645516666668  0.0000000000000000
  0.3333332781666666  0.2583978850000006  0.4999998345000002
  0.3333332781666666  0.5917312183333333  0.4999998345000002
  0.2777778896666666  0.0771897983333331  0.9999995840000000
  0.7222222888333332  0.0771898133333337  0.0000002515000005
  0.0555554311666667  0.5771899166666669  0.0000003284999998
  0.3333333331666668  0.4250645016666667  0.4999999995000002
  0.1111110256666665  0.9105232683333335  0.4999996519999997
  0.3333333331666668  0.7583978349999999  0.4999999995000002
  0.0555554311666667  0.2438565833333341  0.0000003284999998
  0.1666666666666665  0.0917311683333333  0.0000000000000000
  0.1666666666666665  0.4250645016666668  0.0000000000000000
  0.3333332781666667  0.9250645516666666  0.4999998345000002
  0.1111110256666665  0.5771899350000004  0.4999996519999997
  0.1111110256666663  0.2438566016666667  0.4999996520000002
  0.7777778898333333  0.0771897983333330  0.4999995845000001
  0.7777778898333333  0.4105231316666673  0.4999995845000001
  0.7777778898333333  0.7438564650000000  0.4999995845000001
  0.1111112231666666  0.7438564650000000  0.4999995845000001
  0.1111112231666666  0.4105231316666674  0.4999995845000001
  0.3333333331666667  0.0917311683333333  0.4999999995000002
  0.1111112231666665  0.0771897983333331  0.4999995845000001
  0.0555556221666667  0.4105231466666671  0.0000002515000005
  0.0555556221666666  0.0771898133333338  0.0000002515000005
  0.0555554311666668  0.9105232499999999  0.0000003284999998
  0.0555556221666667  0.7438564800000002  0.0000002515000005
  0.1666666666666665  0.7583978349999999  0.0000000000000000
  0.5555557750000000  0.6744490183333335  0.5000004599999998
  0.5000001749999999  0.3245856250000001  0.0000005249999999
  0.6111114374999999  0.6744489283333336  0.9999994825000003
  0.6111114374999999  0.3411155950000002  0.9999994825000003
  0.6111114374999997  0.0077822616666670  0.9999994825000003
  0.6159074194999999  0.2222634950000004  0.3477222585000000
  0.5555557750000000  0.3411156850000005  0.5000004599999998
  0.6666666665000001  0.2784670616666674  0.1376411595000001
  0.5555552435000001  0.8411156516666670  0.5000005805000006
  0.5555552435000001  0.5077823183333336  0.5000005805000006
  0.5555552435000001  0.1744489850000004  0.5000005805000006
  0.6111108900000000  0.8411157150000000  0.9999996850000001
  0.6666667330000001  0.8889302583333334  0.8045544690000000
  0.6111108900000000  0.1744490483333336  0.9999996850000001
  0.6666668420000000  0.3245856249999999  0.5000005260000000
  0.5555557749999999  0.0077823516666669  0.5000004599999998
  0.5000001749999999  0.9912522916666667  0.0000005249999999
  0.0507592331666669  0.3889300850000001  0.6522776995000000
  0.1159075731666665  0.0555969350000004  0.1522769895000000
  0.3333333846666666  0.7784670300000002  0.8623587790000000
  0.2270598836666665  0.2784671733333335  0.1811796510000000
  0.1666666666666665  0.7784670300000002  0.3623586250000000
  0.1666666666666665  0.4451336966666668  0.3623586250000000
  0.1666666666666665  0.1118003633333342  0.3623586250000000
  0.2270598651666667  0.7784669983333335  0.8188207155000000
  0.2270598836666666  0.9451338399999999  0.1811796510000000
  0.2270598651666666  0.1118003316666673  0.8188207155000000
  0.2270598836666666  0.6118005066666671  0.1811796510000000
  0.3333333846666666  0.1118003633333341  0.8623587790000000
  0.2270598651666666  0.4451336650000003  0.8188207155000000
  0.3333333846666666  0.4451336966666669  0.8623587790000000
  0.1666667331666666  0.2222635916666670  0.3045544694999999
  0.2729400951666666  0.1118004666666673  0.3188202854999999
  0.2729400951666667  0.4451338000000001  0.3188202854999999
  0.2729400951666667  0.7784671333333333  0.3188202854999999
  0.2174257521666666  0.2222636600000006  0.8477230414999999
  0.2174257521666666  0.5555969933333332  0.8477230414999999
  0.0555552436666664  0.1744489850000004  0.0000005810000007
  0.3333333331666669  0.9451337283333334  0.1376411595000001
  0.1666667331666666  0.5555969250000000  0.3045544694999999
  0.1666667331666667  0.8889302583333335  0.3045544694999999
  0.3333333996666664  0.2222635916666670  0.8045544689999999
  0.3333333331666668  0.6118003950000004  0.1376411595000001
  0.3333333996666664  0.5555969250000000  0.8045544689999999
  0.3333331586666666  0.4912522583333335  0.4999994760000003
  0.1666666666666665  0.6118003950000004  0.6376411599999998
  0.3333333996666664  0.8889302583333334  0.8045544690000000
  0.2777775566666666  0.8411157150000000  0.9999996850000001
  0.2222219101666666  0.1744489850000004  0.5000005805000006
  0.2222219101666666  0.5077823183333336  0.5000005805000006
  0.2222219101666667  0.8411156516666670  0.5000005805000006
  0.2222224416666664  0.0077823516666669  0.5000004599999998
  0.2222224416666664  0.3411156850000005  0.5000004599999998
  0.2222224416666664  0.6744490183333335  0.5000004599999998
  0.2777781041666665  0.0077822616666670  0.9999994825000003
  0.2777781041666666  0.3411155950000002  0.9999994825000003
  0.2777781041666666  0.6744489283333336  0.9999994825000003
  0.1666668416666667  0.3245856250000001  0.0000005249999999
  0.2825740861666664  0.2222634950000004  0.3477222585000000
  0.1666668416666668  0.9912522916666667  0.0000005249999999
  0.3333335086666668  0.3245856249999999  0.5000005260000000
  0.3333335086666668  0.6579189583333336  0.5000005260000000
  0.3333335086666668  0.9912522916666667  0.5000005260000000
  0.3333331586666665  0.1579189250000008  0.4999994760000003
  0.3333331586666666  0.8245855916666670  0.4999994760000003
  0.2729401206666666  0.2784670350000005  0.6811791970000002
  0.2729401206666666  0.6118003683333335  0.6811791970000002
  0.2729401206666667  0.9451337016666667  0.6811791970000002
  0.1666666666666665  0.2784670616666670  0.6376411599999998
  0.1666666666666665  0.9451337283333334  0.6376411599999998
  0.0507592331666669  0.7222634183333333  0.6522776995000000
  0.1666668416666667  0.6579189583333336  0.0000005249999999
  0.1062734286666666  0.1118004666666672  0.8188202860000001
  0.1062734536666667  0.9451337016666667  0.1811791960000002
  0.1159074196666667  0.2222634950000004  0.8477222590000000
  0.0603932171666666  0.6118005066666671  0.6811796515000003
  0.0603932171666666  0.9451338400000001  0.6811796515000000
  0.0603931986666666  0.1118003316666673  0.3188207160000000
  0.0603931986666666  0.4451336650000003  0.3188207159999998
  0.0603932171666665  0.2784671733333336  0.6811796515000000
  0.2777775566666666  0.5077823816666672  0.9999996850000001
  0.1062734286666667  0.4451338000000001  0.8188202859999998
  0.1062734286666667  0.7784671333333334  0.8188202859999998
  0.0507590856666664  0.2222636600000006  0.3477230420000000
  0.0507590856666665  0.5555969933333335  0.3477230420000000
  0.0507590856666666  0.8889303266666666  0.3477230420000000
  0.0603931986666667  0.7784669983333335  0.3188207160000000
  0.1159074196666668  0.5555968283333339  0.8477222590000000
  0.1666665921666666  0.3889302300000005  0.6954454365000002
  0.1159074196666667  0.8889301616666669  0.8477222590000003
  0.6666668420000000  0.6579189583333336  0.5000005260000000
  0.1666665921666667  0.7222635633333336  0.6954454365000002
  0.0507592331666668  0.0555967516666670  0.6522776995000000
  0.1666665921666666  0.0555968966666676  0.6954454365000002
  0.1159075731666667  0.7222636016666667  0.1522769895000000
  0.1159075731666666  0.3889302683333338  0.1522769895000000
  0.2174258996666666  0.0555967516666674  0.1522776990000000
  0.2174257521666667  0.8889303266666666  0.8477230414999999
  0.1062734536666666  0.2784670350000005  0.1811791960000002
  0.1666664916666666  0.8245855916666670  0.9999994750000001
  0.1111108901666668  0.8411157150000000  0.4999996855000004
  0.2825742396666667  0.0555969350000004  0.6522769890000001
  0.2825742396666667  0.3889302683333335  0.6522769890000001
  0.2825742396666667  0.7222636016666667  0.6522769890000001
  0.3333332586666667  0.0555968966666676  0.1954454360000002
  0.3333332586666665  0.3889302300000004  0.1954454360000000
  0.3333332586666667  0.7222635633333336  0.1954454360000002
  0.2174258996666666  0.3889300850000001  0.1522776990000000
  0.2174258996666667  0.7222634183333333  0.1522776990000000
  0.1111108901666666  0.1744490483333336  0.4999996855000004
  0.1111108901666667  0.5077823816666672  0.4999996855000004
  0.2825740861666664  0.5555968283333339  0.3477222584999999
  0.0555552436666665  0.5077823183333336  0.0000005810000007
  0.1062734536666667  0.6118003683333335  0.1811791960000002
  0.0555552436666666  0.8411156516666670  0.0000005810000001
  0.0555557746666664  0.0077823516666669  0.0000004589999996
  0.0555557746666665  0.3411156850000006  0.0000004589999996
  0.0555557746666665  0.6744490183333334  0.0000004589999996
  0.1111114376666667  0.0077822616666670  0.4999994830000002
  0.1111114376666667  0.3411155950000002  0.4999994830000002
  0.1111114376666667  0.6744489283333334  0.4999994830000002
  0.1666664916666665  0.1579189250000008  0.9999994750000001
  0.1666664916666666  0.4912522583333335  0.9999994750000001
  0.2825740861666665  0.8889301616666668  0.3477222585000000
  0.6666668420000001  0.9912522916666667  0.5000005260000000
  0.6111108900000000  0.5077823816666672  0.9999996850000001
  0.6666664920000003  0.8245855916666670  0.4999994760000003
  0.0000000513333334  0.1118003633333340  0.8623587790000000
  0.8937265318333335  0.4451336650000002  0.8188207155000000
  0.0000000513333334  0.4451336966666668  0.8623587790000000
  0.8333333998333333  0.2222635916666670  0.3045544694999999
  0.9396067618333332  0.1118004666666672  0.3188202854999999
  0.9396067618333334  0.4451338000000000  0.3188202854999999
  0.9396067618333335  0.7784671333333333  0.3188202854999999
  0.8840924188333333  0.2222636600000004  0.8477230414999999
  0.8840924188333333  0.5555969933333332  0.8477230414999999
  0.8937265503333333  0.6118005066666669  0.1811796510000000
  0.7222219103333335  0.1744489850000004  0.0000005810000007
  0.8333333998333333  0.5555969249999998  0.3045544694999999
  0.8333333998333333  0.8889302583333334  0.3045544694999999
  0.0000000663333333  0.2222635916666670  0.8045544689999999
  0.0000000663333333  0.5555969249999998  0.8045544689999999
  0.8333335083333334  0.6579189583333336  0.0000005249999999
  0.8840924188333333  0.8889303266666666  0.8477230414999999
  0.7729400953333333  0.1118004666666671  0.8188202860000001
  0.7777775568333334  0.8411157150000000  0.4999996855000004
  0.9492409063333335  0.0555969350000003  0.6522769890000001
 -0.0000000001666664  0.9451337283333332  0.1376411595000001
  0.8937265318333335  0.1118003316666671  0.8188207155000000
  0.8937265503333334  0.9451338399999999  0.1811796510000000
  0.8937265318333335  0.7784669983333334  0.8188207155000000
  0.8333335083333334  0.3245856250000001  0.0000005249999999
  0.9492407528333332  0.2222634950000004  0.3477222585000000
  0.8333335083333334  0.9912522916666667  0.0000005249999999
  0.0000001753333335  0.3245856249999998  0.5000005260000000
  0.0000001753333335  0.6579189583333335  0.5000005260000000
  0.0000001753333337  0.9912522916666665  0.5000005260000000
  0.9999998253333333  0.1579189250000007  0.4999994760000003
  0.9999998253333333  0.8245855916666670  0.4999994760000003
  0.9396067873333334  0.2784670350000004  0.6811791970000002
  0.9396067873333334  0.6118003683333333  0.6811791970000002
  0.9396067873333335  0.9451337016666667  0.6811791970000002
  0.8333333333333335  0.2784670616666670  0.6376411599999998
  0.8333333333333336  0.6118003950000004  0.6376411599999998
  0.8333333333333337  0.9451337283333332  0.6376411599999998
  0.9999998253333333  0.4912522583333334  0.4999994760000003
 -0.0000000001666666  0.6118003950000004  0.1376411595000001
  0.0000000513333334  0.7784670300000002  0.8623587790000000
  0.8937265503333331  0.2784671733333335  0.1811796510000000
  0.8333333333333337  0.7784670300000002  0.3623586250000000
  0.8333333333333336  0.4451336966666666  0.3623586250000000
  0.8333333333333335  0.1118003633333340  0.3623586250000000
  0.9492409063333335  0.3889302683333335  0.6522769890000001
  0.9492409063333335  0.7222636016666667  0.6522769890000001
 -0.0000000746666666  0.0555968966666675  0.1954454360000002
 -0.0000000746666666  0.3889302300000004  0.1954454360000000
  0.7270598653333333  0.1118003316666672  0.3188207160000000
  0.7270598653333334  0.4451336650000003  0.3188207159999998
  0.7270598838333333  0.2784671733333335  0.6811796515000000
  0.9444442233333333  0.5077823816666672  0.9999996850000001
  0.7729400953333334  0.4451338000000000  0.8188202859999998
  0.7729400953333335  0.7784671333333333  0.8188202859999998
  0.7174257523333332  0.2222636600000005  0.3477230420000000
  0.7174257523333333  0.5555969933333332  0.3477230420000000
  0.7174257523333333  0.8889303266666666  0.3477230420000000
  0.7270598653333334  0.7784669983333334  0.3188207160000000
  0.7825740863333334  0.5555968283333339  0.8477222590000000
  0.8333332588333334  0.3889302300000004  0.6954454365000002
  0.7825740863333334  0.8889301616666667  0.8477222590000003
  0.7174258998333335  0.3889300850000001  0.6522776995000000
  0.8333332588333334  0.7222635633333336  0.6954454365000002
  0.7174258998333335  0.0555967516666669  0.6522776995000000
  0.8333332588333332  0.0555968966666675  0.6954454365000002
  0.7825742398333334  0.7222636016666666  0.1522769895000000
  0.7825742398333334  0.3889302683333337  0.1522769895000000
  0.7825742398333332  0.0555969350000003  0.1522769895000000
  0.7174258998333336  0.7222634183333333  0.6522776995000000
  0.7270598838333334  0.9451338400000001  0.6811796515000000
  0.9444447708333333  0.6744489283333335  0.9999994825000003
  0.7270598838333334  0.6118005066666669  0.6811796515000003
  0.7729401203333335  0.9451337016666667  0.1811791960000002
 -0.0000000746666666  0.7222635633333336  0.1954454360000002
  0.8840925663333332  0.3889300850000000  0.1522776990000000
  0.8840925663333333  0.7222634183333333  0.1522776990000000
  0.7777775568333332  0.1744490483333335  0.4999996855000004
  0.7777775568333333  0.5077823816666672  0.4999996855000004
  0.9492407528333333  0.5555968283333339  0.3477222584999999
  0.7222219103333336  0.5077823183333336  0.0000005810000007
  0.7729401203333334  0.6118003683333333  0.1811791960000002
  0.7222219103333336  0.8411156516666670  0.0000005810000001
  0.7222224413333330  0.0077823516666669  0.0000004589999996
  0.7222224413333331  0.3411156850000005  0.0000004589999996
  0.7222224413333331  0.6744490183333333  0.0000004589999996
  0.7777781043333333  0.0077822616666670  0.4999994830000002
  0.7777781043333334  0.3411155950000002  0.4999994830000002
  0.7777781043333334  0.6744489283333333  0.4999994830000002
  0.8333331583333334  0.1579189250000007  0.9999994750000001
  0.8333331583333334  0.4912522583333335  0.9999994750000001
  0.8333331583333334  0.8245855916666670  0.9999994750000001
  0.9492407528333333  0.8889301616666667  0.3477222585000000
  0.7729401203333333  0.2784670350000005  0.1811791960000002
  0.8840925663333332  0.0555967516666673  0.1522776990000000
  0.7825740863333334  0.2222634950000004  0.8477222590000000
  0.9444447708333333  0.3411155950000000  0.9999994825000003
  0.9444447708333333  0.0077822616666670  0.9999994825000003
  0.8888891083333333  0.6744490183333334  0.5000004599999998
  0.5507590855000001  0.5555969933333332  0.8477230414999999
  0.3888885770000000  0.1744489850000004  0.0000005810000007
  0.6666666665000002  0.9451337283333334  0.1376411595000001
  0.5000000665000001  0.5555969249999998  0.3045544694999999
  0.5000000665000001  0.8889302583333334  0.3045544694999999
  0.6666667330000000  0.2222635916666670  0.8045544689999999
  0.6666667330000000  0.5555969249999998  0.8045544689999999
  0.5000001749999999  0.6579189583333336  0.0000005249999999
  0.5507590855000001  0.8889303266666666  0.8477230414999999
  0.4396067619999999  0.1118004666666671  0.8188202860000001
  0.4444442235000001  0.8411157150000000  0.4999996855000004
  0.6159075730000000  0.0555969350000004  0.6522769890000001
  0.6159075730000000  0.3889302683333335  0.6522769890000001
  0.6159075730000000  0.7222636016666667  0.6522769890000001
  0.6666665919999998  0.0555968966666676  0.1954454360000002
  0.6666665919999999  0.3889302300000004  0.1954454360000000
  0.6666665919999999  0.7222635633333336  0.1954454360000002
  0.5507592330000001  0.3889300850000001  0.1522776990000000
  0.5507592330000001  0.7222634183333333  0.1522776990000000
  0.4444442235000000  0.1744490483333336  0.4999996855000004
  0.4444442235000000  0.5077823816666672  0.4999996855000004
  0.5507590855000001  0.2222636600000005  0.8477230414999999
  0.6159074194999999  0.5555968283333339  0.3477222584999999
  0.6062734284999999  0.7784671333333333  0.3188202854999999
  0.6062734284999999  0.1118004666666673  0.3188202854999999
  0.6062734540000001  0.2784670350000005  0.6811791970000002
  0.6062734540000001  0.6118003683333333  0.6811791970000002
  0.6062734540000001  0.9451337016666667  0.6811791970000002
  0.4999999999999999  0.2784670616666670  0.6376411599999998
  0.4999999999999999  0.6118003950000004  0.6376411599999998
  0.5000000000000001  0.9451337283333334  0.6376411599999998
  0.6666664920000002  0.4912522583333335  0.4999994760000003
  0.6666666665000001  0.6118003950000004  0.1376411595000001
  0.6666667179999999  0.7784670300000002  0.8623587790000000
  0.5603932169999999  0.2784671733333335  0.1811796510000000
  0.5000000000000001  0.7784670300000002  0.3623586250000000
  0.4999999999999999  0.4451336966666667  0.3623586250000000
  0.4999999999999999  0.1118003633333341  0.3623586250000000
  0.5603931985000000  0.7784669983333334  0.8188207155000000
  0.5603932170000000  0.9451338399999999  0.1811796510000000
  0.5603931985000000  0.1118003316666672  0.8188207155000000
  0.5603932169999999  0.6118005066666669  0.1811796510000000
  0.6666667179999999  0.1118003633333341  0.8623587790000000
  0.5603931985000000  0.4451336650000003  0.8188207155000000
  0.6666667179999999  0.4451336966666669  0.8623587790000000
  0.5000000665000000  0.2222635916666670  0.3045544694999999
  0.6062734284999999  0.4451338000000001  0.3188202854999999
  0.6666664919999998  0.1579189250000008  0.4999994760000003
  0.3888885770000000  0.5077823183333336  0.0000005810000007
  0.3888885770000001  0.8411156516666670  0.0000005810000001
  0.3937265319999999  0.7784669983333334  0.3188207160000000
  0.4492407530000000  0.5555968283333339  0.8477222590000000
  0.4999999255000001  0.3889302300000004  0.6954454365000002
  0.4492407530000000  0.8889301616666668  0.8477222590000003
  0.3840925665000002  0.3889300850000001  0.6522776995000000
  0.4999999255000001  0.7222635633333336  0.6954454365000002
  0.3840925665000002  0.0555967516666669  0.6522776995000000
  0.4999999254999999  0.0555968966666676  0.6954454365000002
  0.4492409065000000  0.7222636016666666  0.1522769895000000
  0.4492409065000001  0.3889302683333337  0.1522769895000000
  0.4492409064999999  0.0555969350000004  0.1522769895000000
  0.3840925665000002  0.7222634183333333  0.6522776995000000
  0.9444442233333334  0.1744490483333335  0.9999996850000001
 -0.0000000001666666  0.2784670616666674  0.1376411595000001
  0.0000000663333333  0.8889302583333334  0.8045544690000000
  0.9444442233333334  0.8411157150000000  0.9999996850000001
  0.8888885768333332  0.1744489850000004  0.5000005805000006
  0.8888885768333333  0.5077823183333336  0.5000005805000006
  0.8888885768333334  0.8411156516666669  0.5000005805000006
  0.8888891083333333  0.0077823516666669  0.5000004599999998
  0.8888891083333333  0.3411156850000004  0.5000004599999998
  0.3840924190000001  0.8889303266666666  0.3477230420000000
  0.4396067869999998  0.6118003683333335  0.1811791960000002
  0.3840924190000000  0.5555969933333332  0.3477230420000000
  0.4396067620000002  0.7784671333333333  0.8188202859999998
  0.3888891079999999  0.0077823516666669  0.0000004589999996
  0.3888891080000000  0.3411156850000005  0.0000004589999996
  0.3888891080000000  0.6744490183333333  0.0000004589999996
  0.4444447710000000  0.0077822616666670  0.4999994830000002
  0.4444447710000000  0.3411155950000002  0.4999994830000002
  0.4444447710000000  0.6744489283333334  0.4999994830000002
  0.4999998249999999  0.1579189250000008  0.9999994750000001
  0.4999998250000000  0.4912522583333335  0.9999994750000001
  0.4999998250000000  0.8245855916666670  0.9999994750000001
  0.6159074195000001  0.8889301616666668  0.3477222585000000
  0.4396067869999998  0.2784670350000005  0.1811791960000002
  0.5507592330000000  0.0555967516666674  0.1522776990000000
  0.4396067869999999  0.9451337016666667  0.1811791960000002
  0.4492407530000000  0.2222634950000004  0.8477222590000000
  0.3937265505000000  0.6118005066666671  0.6811796515000003
  0.3937265505000000  0.9451338400000001  0.6811796515000000
  0.3937265319999997  0.1118003316666672  0.3188207160000000
  0.3937265319999998  0.4451336650000003  0.3188207159999998
  0.3937265505000000  0.2784671733333335  0.6811796515000000
  0.3333333331666668  0.2784670616666674  0.1376411595000001
  0.4396067620000001  0.4451338000000001  0.8188202859999998
  0.3840924190000000  0.2222636600000005  0.3477230420000000
  0.2777775566666666  0.1744490483333336  0.9999996850000001
