Fe Lu O 
 1.0000000000000000
    31.2710227687530065    0.0000000000000000    0.0000000000000000
     0.0000000000000000   34.9584869385000943    0.0000000000000000
     0.0000000000000000    0.0000000000000000    6.0181129455644564
 Fe  Lu  O  
 108 108 324
Direct
  0.2776833451666667  0.3333333449999995  0.6669492745000003
  0.6666664123333335  0.3333333349999998  0.1661021630000001
  0.8333330793333333  0.3333333349999998  0.6661021620000001
  0.8333330793333333  0.6666666683333334  0.6661021620000001
  0.8333330793333333  0.0000000016666666  0.6661021620000001
  0.7223160708333333  0.3333333366666666  0.6669489975000006
  0.7223160708333333  0.6666666699999989  0.6669489975000006
  0.6666664123333335  0.6666666683333334  0.1661021630000001
  0.7223166268333335  0.1666666499999997  0.3330509944999999
  0.6666668853333335  0.1666666516666664  0.8338980990000002
  0.6666668853333335  0.4999999849999998  0.8338980990000002
  0.6666668853333335  0.8333333183333326  0.8338980990000002
  0.7776838843333334  0.1666666466666664  0.8330512669999999
  0.7776838843333334  0.4999999799999997  0.8330512669999999
  0.7776838843333334  0.8333333133333334  0.8330512669999999
  0.6666664123333335  0.0000000016666666  0.1661021630000001
  0.7223166268333335  0.8333333166666658  0.3330509944999999
  0.8889832938333335  0.4999999833333331  0.8330509935000003
  0.7776833453333333  0.6666666783333335  0.1669492740000003
  0.9443500118333334  0.0000000116666665  0.6669492745000003
  0.8889827378333333  0.3333333366666666  0.1669489965000004
  0.8889827378333333  0.6666666699999998  0.1669489965000004
  0.8889827378333333  0.0000000033333334  0.1669489965000004
  0.8889832938333335  0.1666666499999997  0.8330509935000003
  0.8889832938333335  0.8333333166666658  0.8330509935000003
  0.7223160708333333  0.0000000033333334  0.6669489975000006
  0.9443500118333334  0.6666666783333335  0.6669492745000003
  0.8333335518333334  0.8333333183333326  0.3338980995000003
  0.9443505513333333  0.1666666466666664  0.3330512660000001
  0.9443505513333333  0.4999999800000000  0.3330512660000001
  0.9443505513333333  0.8333333133333334  0.3330512660000001
  0.7776833453333333  0.3333333449999995  0.1669492740000003
  0.8333335518333334  0.1666666516666664  0.3338980995000003
  0.8333335518333334  0.4999999849999998  0.3338980995000003
  0.6110166785000000  0.3333333449999995  0.6669492745000003
  0.4443500120000000  0.0000000116666665  0.1669492740000003
  0.6110166785000000  0.0000000116666665  0.6669492745000003
  0.4999997460000000  0.6666666683333334  0.6661021620000001
  0.4999997460000000  0.0000000016666666  0.6661021620000001
  0.3889827375000000  0.3333333366666666  0.6669489975000006
  0.3889827375000000  0.6666666699999989  0.6669489975000006
  0.3889832935000000  0.1666666499999997  0.3330509944999999
  0.3889832935000000  0.4999999833333331  0.3330509944999999
  0.4999997460000000  0.3333333349999998  0.6661021620000001
  0.3333330790000001  0.0000000016666666  0.1661021630000001
  0.3333335520000000  0.4999999849999998  0.8338980990000002
  0.3333335520000000  0.8333333183333326  0.8338980990000002
  0.4443505510000000  0.1666666466666664  0.8330512669999999
  0.4443505510000000  0.4999999799999997  0.8330512669999999
  0.4443505510000000  0.8333333133333334  0.8330512669999999
  0.3889832935000000  0.8333333166666658  0.3330509944999999
  0.3333335520000000  0.1666666516666664  0.8338980990000002
  0.3333330790000001  0.3333333349999998  0.1661021630000001
  0.3333330790000001  0.6666666683333334  0.1661021630000001
  0.5556499604999999  0.4999999833333331  0.8330509935000003
  0.5556494045000000  0.3333333366666666  0.1669489965000004
  0.5556494045000000  0.6666666699999998  0.1669489965000004
  0.5556494045000000  0.0000000033333334  0.1669489965000004
  0.5556499604999999  0.1666666499999997  0.8330509935000003
  0.5556499604999999  0.8333333166666658  0.8330509935000003
  0.6110166785000000  0.6666666783333335  0.6669492745000003
  0.5000002185000001  0.4999999849999998  0.3338980995000003
  0.5000002185000001  0.8333333183333326  0.3338980995000003
  0.6110172180000000  0.1666666466666664  0.3330512660000001
  0.6110172180000000  0.4999999800000000  0.3330512660000001
  0.6110172180000000  0.8333333133333334  0.3330512660000001
  0.4443500120000000  0.3333333449999995  0.1669492740000003
  0.5000002185000001  0.1666666516666664  0.3338980995000003
  0.4443500120000000  0.6666666783333335  0.1669492740000003
  0.3889827375000000  0.0000000033333334  0.6669489975000006
  0.7776833453333333  0.0000000116666665  0.1669492740000003
  0.9443500118333334  0.3333333449999995  0.6669492745000003
  0.7223166268333335  0.4999999833333331  0.3330509944999999
  0.0556494041666666  0.3333333366666666  0.6669489975000006
  0.2776838846666667  0.8333333133333334  0.3330512660000001
  0.1110166786666666  0.3333333449999995  0.1669492740000003
  0.1666668851666667  0.1666666516666664  0.3338980995000003
  0.1110166786666666  0.6666666783333335  0.1669492740000003
  0.0556494041666666  0.0000000033333334  0.6669489975000006
  0.2223166271666666  0.4999999833333331  0.8330509935000003
 -0.0000002543333333  0.6666666683333334  0.1661021630000001
 -0.0000002543333333  0.3333333349999998  0.1661021630000001
  0.1666664126666666  0.3333333349999998  0.6661021620000001
  0.1666664126666666  0.6666666683333334  0.6661021620000001
  0.2776838846666667  0.1666666466666664  0.3330512660000001
  0.1666664126666666  0.0000000016666666  0.6661021620000001
  0.0556499601666667  0.1666666499999997  0.3330509944999999
  0.0556499601666667  0.4999999833333331  0.3330509944999999
 -0.0000002543333333  0.0000000016666666  0.1661021630000001
  0.0000002186666666  0.1666666516666664  0.8338980990000002
  0.0000002186666666  0.4999999849999998  0.8338980990000002
  0.0000002186666666  0.8333333183333326  0.8338980990000002
  0.1110172176666666  0.1666666466666664  0.8330512669999999
  0.1110172176666666  0.4999999799999997  0.8330512669999999
  0.1110172176666666  0.8333333133333334  0.8330512669999999
  0.0556499601666667  0.8333333166666658  0.3330509944999999
  0.0556494041666666  0.6666666699999989  0.6669489975000006
  0.1666668851666667  0.8333333183333326  0.3338980995000003
  0.2776838846666667  0.4999999800000000  0.3330512660000001
  0.2776833451666667  0.6666666783333335  0.6669492745000003
  0.1666668851666667  0.4999999849999998  0.3338980995000003
  0.2776833451666667  0.0000000116666665  0.6669492745000003
  0.2223160711666667  0.3333333366666666  0.1669489965000004
  0.2223160711666667  0.6666666699999998  0.1669489965000004
  0.1110166786666666  0.0000000116666665  0.1669492740000003
  0.2223166271666666  0.1666666499999997  0.8330509935000003
  0.2223166271666666  0.8333333166666658  0.8330509935000003
  0.2223160711666667  0.0000000033333334  0.1669489965000004
  0.4444443780000000  0.5894768533333329  0.5000002510000005
  0.5000000000000000  0.0749354483333333  0.0000000000000000
  0.5000000000000000  0.7416021149999994  0.0000000000000000
  0.7777779023333333  0.7561434166666660  0.5000003279999999
  0.7222223078333333  0.0894767316666665 -0.0000003484999998
  0.7222223078333333  0.4228100649999995 -0.0000003484999998
  0.3333333885000001  0.7416021149999994  0.4999998345000002
  0.7222223078333334  0.7561433983333333 -0.0000003485000002
  0.4444445690000001  0.4228100833333331  0.5000003279999999
  0.4444445690000001  0.0894767499999999  0.5000003279999999
  0.3888889745000000  0.4228100649999995 -0.0000003484999998
  0.3888889745000000  0.0894767316666665 -0.0000003484999998
  0.4444445690000001  0.7561434166666660  0.5000003279999999
  0.3888887770000001  0.2561435349999998 -0.0000004160000000
  0.4444443780000000  0.9228101866666663  0.5000002510000005
  0.5000000000000000  0.4082687816666665  0.0000000000000000
  0.4444443780000000  0.2561435199999999  0.5000002510000005
  0.3888887770000001  0.5894768683333327 -0.0000004160000000
  0.3333333885000001  0.4082687816666665  0.4999998345000002
  0.3888889745000000  0.7561433983333333 -0.0000003485000002
  0.3888887770000001  0.9228102016666669 -0.0000004160000000
  0.8333333333333335  0.4082687816666665  0.0000000000000000
  0.6111112355000000  0.4228100833333331  0.0000003284999998
  0.3333333335000000  0.2416021650000000  0.4999999995000003
  0.6111112355000000  0.7561434166666660  0.0000003284999998
  0.5000000000000000  0.9082688316666667  0.0000000000000000
  0.5000000000000000  0.5749354983333332  0.0000000000000000
  0.5555556410000000  0.7561433983333333  0.4999996520000002
  0.5555556410000000  0.4228100649999995  0.4999996519999997
  0.5000000000000000  0.2416021650000000  0.0000000000000000
  0.6111110445000001  0.2561435199999999  0.0000002515000005
  0.6111112354999999  0.0894767499999999  0.0000003284999998
  0.6111110445000001  0.9228101866666663  0.0000002515000005
  0.6111110445000001  0.5894768533333329  0.0000002515000005
  0.5555554435000002  0.9228102016666669  0.4999995845000001
  0.5555554435000002  0.5894768683333327  0.4999995845000001
  0.5555554435000002  0.2561435349999998  0.4999995845000001
  0.3333333335000000  0.9082688316666667  0.4999999995000003
  0.7777779023333333  0.0894767499999999  0.5000003279999999
  0.0000000001666666  0.9082688316666667  0.4999999995000003
  0.7777779023333333  0.4228100833333331  0.5000003279999999
  0.7777777113333336  0.5894768533333329  0.5000002510000005
  0.3333333885000001  0.0749354483333333  0.4999998345000002
  0.7777777113333336  0.9228101866666663  0.5000002510000005
  0.3333333335000000  0.5749354983333332  0.4999999995000003
  0.7777777113333336  0.2561435199999999  0.5000002510000005
  0.1666666666666666  0.2416021650000000  0.0000000000000000
  0.5555556410000000  0.0894767316666665  0.4999996519999997
  0.2222223076666666  0.4228100649999995  0.4999996519999997
  0.2222223076666667  0.7561433983333333  0.4999996520000002
  0.1666666666666666  0.5749354983333332  0.0000000000000000
  0.2777779021666666  0.7561434166666660  0.0000003284999998
  0.0000000001666666  0.2416021650000000  0.4999999995000003
  0.2222223076666666  0.0894767316666665  0.4999996519999997
  0.0000000001666666  0.5749354983333332  0.4999999995000003
  0.2777779021666666  0.4228100833333331  0.0000003284999998
  0.0000000551666667  0.0749354483333333  0.4999998345000002
  0.0555554436666667  0.9228102016666669 -0.0000004160000000
  0.0000000551666667  0.4082687816666665  0.4999998345000002
  0.2777777111666667  0.2561435199999999  0.0000002515000005
  0.0000000551666667  0.7416021149999994  0.4999998345000002
  0.1666666666666666  0.7416021149999994  0.0000000000000000
  0.0555554436666667  0.2561435349999998 -0.0000004160000000
  0.0555554436666667  0.5894768683333327 -0.0000004160000000
  0.1111110446666667  0.2561435199999999  0.5000002510000005
  0.1666666666666666  0.4082687816666665  0.0000000000000000
  0.1111110446666667  0.9228101866666663  0.5000002510000005
  0.1111112356666666  0.0894767499999999  0.5000003279999999
  0.1111112356666666  0.7561434166666660  0.5000003279999999
  0.0555556411666666  0.0894767316666665 -0.0000003484999998
  0.0555556411666666  0.4228100649999995 -0.0000003484999998
  0.0555556411666667  0.7561433983333333 -0.0000003485000002
  0.1111112356666666  0.4228100833333331  0.5000003279999999
  0.1111110446666667  0.5894768533333329  0.5000002510000005
  0.1666666666666666  0.0749354483333333  0.0000000000000000
  0.2777779021666666  0.0894767499999999  0.0000003284999998
  0.1666666666666666  0.9082688316666667  0.0000000000000000
  0.2777777111666667  0.5894768533333329  0.0000002515000005
  0.7222221103333334  0.5894768683333327 -0.0000004160000000
  0.7222221103333334  0.2561435349999998 -0.0000004160000000
  0.8333333333333335  0.7416021149999994  0.0000000000000000
  0.8333333333333335  0.0749354483333333  0.0000000000000000
  0.6666667218333334  0.7416021149999994  0.4999998345000002
  0.6666667218333334  0.4082687816666665  0.4999998345000002
  0.7222221103333334  0.9228102016666669 -0.0000004160000000
  0.2777777111666667  0.9228101866666663  0.0000002515000005
  0.9444445688333333  0.4228100833333331  0.0000003284999998
  0.6666666668333333  0.5749354983333332  0.4999999995000003
  0.8888889743333335  0.0894767316666665  0.4999996519999997
  0.6666666668333333  0.2416021650000000  0.4999999995000003
  0.9444445688333333  0.7561434166666660  0.0000003284999998
  0.8333333333333335  0.9082688316666667  0.0000000000000000
  0.8333333333333335  0.5749354983333332  0.0000000000000000
  0.6666667218333334  0.0749354483333333  0.4999998345000002
  0.8888889743333335  0.4228100649999995  0.4999996519999997
  0.8888889743333336  0.7561433983333333  0.4999996520000002
  0.2222221101666667  0.9228102016666669  0.4999995845000001
  0.2222221101666667  0.5894768683333327  0.4999995845000001
  0.2222221101666667  0.2561435349999998  0.4999995845000001
  0.8888887768333334  0.2561435349999998  0.4999995845000001
  0.8888887768333334  0.5894768683333327  0.4999995845000001
  0.6666666668333333  0.9082688316666667  0.4999999995000003
  0.8888887768333334  0.9228102016666669  0.4999995845000001
  0.9444443778333333  0.5894768533333329  0.0000002515000005
  0.9444443778333333  0.9228101866666663  0.0000002515000005
  0.9444445688333333  0.0894767499999999  0.0000003284999998
  0.9444443778333333  0.2561435199999999  0.0000002515000005
  0.8333333333333335  0.2416021650000000  0.0000000000000000
  0.4444442250000000  0.3255509816666666  0.5000004599999998
  0.4999998250000001  0.6754143749999999  0.0000005249999999
  0.3888885625000001  0.3255510716666663 -0.0000005174999998
  0.3888885625000001  0.6588844049999998 -0.0000005174999998
  0.3888885625000001  0.9922177383333329 -0.0000005174999998
  0.3840925805000000  0.7777365049999996  0.3477222585000000
  0.4444442250000000  0.6588843149999994  0.5000004599999998
  0.3333333335000000  0.7215329383333325  0.1376411595000001
  0.4444447565000000  0.1588843483333330  0.5000005805000006
  0.4444447565000000  0.4922176816666663  0.5000005805000006
  0.4444447565000000  0.8255510149999996  0.5000005805000006
  0.3888891100000000  0.1588842849999999 -0.0000003149999999
  0.3333332670000000  0.1110697416666665  0.8045544690000000
  0.3888891100000000  0.8255509516666664 -0.0000003149999999
  0.3333331580000000  0.6754143750000001  0.5000005260000000
  0.4444442250000000  0.9922176483333330  0.5000004599999998
  0.4999998250000001  0.0087477083333333  0.0000005249999999
  0.9492407668333331  0.6110699149999999  0.6522776995000000
  0.8840924268333334  0.9444030649999996  0.1522769894999999
  0.6666666153333334  0.2215329699999997  0.8623587790000000
  0.7729401163333335  0.7215328266666664  0.1811796510000000
  0.8333333333333335  0.2215329699999997  0.3623586250000000
  0.8333333333333335  0.5548663033333332  0.3623586250000000
  0.8333333333333335  0.8881996366666659  0.3623586250000000
  0.7729401348333333  0.2215330016666665  0.8188207155000000
  0.7729401163333335  0.0548661600000000  0.1811796510000000
  0.7729401348333333  0.8881996683333327  0.8188207155000000
  0.7729401163333335  0.3881994933333329  0.1811796510000000
  0.6666666153333334  0.8881996366666659  0.8623587790000000
  0.7729401348333333  0.5548663349999996  0.8188207155000000
  0.6666666153333334  0.5548663033333331  0.8623587790000000
  0.8333332668333334  0.7777364083333330  0.3045544694999999
  0.7270599048333334  0.8881995333333327  0.3188202854999999
  0.7270599048333334  0.5548661999999999  0.3188202854999999
  0.7270599048333334  0.2215328666666666  0.3188202854999999
  0.7825742478333334  0.7777363399999995  0.8477230414999999
  0.7825742478333334  0.4444030066666666  0.8477230414999999
  0.9444447563333335  0.8255510149999996  0.0000005810000007
  0.6666666668333333  0.0548662716666666  0.1376411595000001
  0.8333332668333334  0.4444030750000000  0.3045544694999999
  0.8333332668333334  0.1110697416666665  0.3045544694999999
  0.6666666003333336  0.7777364083333330  0.8045544689999999
  0.6666666668333333  0.3881996049999996  0.1376411595000001
  0.6666666003333336  0.4444030750000000  0.8045544689999999
  0.6666668413333334  0.5087477416666665  0.4999994760000003
  0.8333333333333335  0.3881996049999996  0.6376411599999998
  0.6666666003333336  0.1110697416666665  0.8045544690000000
  0.7222224433333334  0.1588842849999999 -0.0000003149999999
  0.7777780898333334  0.8255510149999996  0.5000005805000006
  0.7777780898333334  0.4922176816666663  0.5000005805000006
  0.7777780898333334  0.1588843483333330  0.5000005805000006
  0.7777775583333335  0.9922176483333330  0.5000004599999998
  0.7777775583333335  0.6588843149999994  0.5000004599999998
  0.7777775583333335  0.3255509816666666  0.5000004599999998
  0.7222218958333334  0.9922177383333329 -0.0000005174999998
  0.7222218958333334  0.6588844049999998 -0.0000005174999998
  0.7222218958333334  0.3255510716666663 -0.0000005174999998
  0.8333331583333333  0.6754143749999999  0.0000005249999999
  0.7174259138333335  0.7777365049999996  0.3477222585000000
  0.8333331583333333  0.0087477083333333  0.0000005249999999
  0.6666664913333333  0.6754143750000001  0.5000005260000000
  0.6666664913333333  0.3420810416666664  0.5000005260000000
  0.6666664913333333  0.0087477083333333  0.5000005260000000
  0.6666668413333334  0.8420810749999992  0.4999994760000003
  0.6666668413333334  0.1754144083333330  0.4999994760000003
  0.7270598793333334  0.7215329649999995  0.6811791970000002
  0.7270598793333334  0.3881996316666665  0.6811791970000002
  0.7270598793333334  0.0548662983333333  0.6811791970000002
  0.8333333333333335  0.7215329383333330  0.6376411599999998
  0.8333333333333335  0.0548662716666666  0.6376411599999998
  0.9492407668333331  0.2777365816666667  0.6522776995000000
  0.8333331583333333  0.3420810416666664  0.0000005249999999
  0.8937265713333333  0.8881995333333329  0.8188202860000001
  0.8937265463333334  0.0548662983333333  0.1811791960000002
  0.8840925803333333  0.7777365049999996  0.8477222590000000
  0.9396067828333334  0.3881994933333329  0.6811796515000003
  0.9396067828333334  0.0548661599999998  0.6811796515000000
  0.9396068013333334  0.8881996683333327  0.3188207160000000
  0.9396068013333334  0.5548663349999996  0.3188207159999998
  0.9396067828333334  0.7215328266666664  0.6811796515000000
  0.7222224433333334  0.4922176183333328 -0.0000003149999999
  0.8937265713333333  0.5548661999999999  0.8188202859999998
  0.8937265713333333  0.2215328666666666  0.8188202859999998
  0.9492409143333335  0.7777363399999995  0.3477230420000000
  0.9492409143333335  0.4444030066666666  0.3477230420000000
  0.9492409143333335  0.1110696733333332  0.3477230420000000
  0.9396068013333334  0.2215330016666665  0.3188207160000000
  0.8840925803333333  0.4444031716666661  0.8477222590000000
  0.8333334078333334  0.6110697699999995  0.6954454365000002
  0.8840925803333334  0.1110698383333331  0.8477222590000003
  0.3333331580000000  0.3420810416666664  0.5000005260000000
  0.8333334078333334  0.2777364366666663  0.6954454365000002
  0.9492407668333331  0.9444032483333330  0.6522776995000000
  0.8333334078333334  0.9444031033333324  0.6954454365000002
  0.8840924268333334  0.2777363983333334  0.1522769894999999
  0.8840924268333334  0.6110697316666662  0.1522769895000000
  0.7825741003333334  0.9444032483333326  0.1522776990000000
  0.7825742478333334  0.1110696733333332  0.8477230414999999
  0.8937265463333334  0.7215329649999995  0.1811791960000002
  0.8333335083333334  0.1754144083333330 -0.0000005249999999
  0.8888891098333334  0.1588842849999999  0.4999996855000004
  0.7174257603333333  0.9444030649999996  0.6522769890000001
  0.7174257603333333  0.6110697316666664  0.6522769890000001
  0.7174257603333333  0.2777363983333333  0.6522769890000001
  0.6666667413333333  0.9444031033333324  0.1954454360000002
  0.6666667413333335  0.6110697699999995  0.1954454360000000
  0.6666667413333333  0.2777364366666663  0.1954454360000002
  0.7825741003333334  0.6110699149999999  0.1522776990000000
  0.7825741003333334  0.2777365816666667  0.1522776990000000
  0.8888891098333334  0.8255509516666664  0.4999996855000004
  0.8888891098333334  0.4922176183333328  0.4999996855000004
  0.7174259138333335  0.4444031716666661  0.3477222584999999
  0.9444447563333335  0.4922176816666663  0.0000005810000007
  0.8937265463333334  0.3881996316666665  0.1811791960000002
  0.9444447563333335  0.1588843483333330  0.0000005810000001
  0.9444442253333335  0.9922176483333330  0.0000004589999996
  0.9444442253333335  0.6588843149999994  0.0000004589999996
  0.9444442253333335  0.3255509816666667  0.0000004589999996
  0.8888885623333334  0.9922177383333329  0.4999994830000002
  0.8888885623333334  0.6588844049999998  0.4999994830000002
  0.8888885623333334  0.3255510716666667  0.4999994830000002
  0.8333335083333334  0.8420810749999992 -0.0000005249999999
  0.8333335083333334  0.5087477416666665 -0.0000005249999999
  0.7174259138333335  0.1110698383333331  0.3477222585000000
  0.3333331580000000  0.0087477083333333  0.5000005260000000
  0.3888891100000000  0.4922176183333328 -0.0000003149999999
  0.3333335080000000  0.1754144083333330  0.4999994760000003
 -0.0000000513333333  0.8881996366666659  0.8623587790000000
  0.1062734681666666  0.5548663349999996  0.8188207155000000
 -0.0000000513333334  0.5548663033333331  0.8623587790000000
  0.1666666001666667  0.7777364083333330  0.3045544694999999
  0.0603932381666666  0.8881995333333327  0.3188202854999999
  0.0603932381666666  0.5548661999999999  0.3188202854999999
  0.0603932381666666  0.2215328666666666  0.3188202854999999
  0.1159075811666667  0.7777363399999995  0.8477230414999999
  0.1159075811666667  0.4444030066666666  0.8477230414999999
  0.1062734496666667  0.3881994933333329  0.1811796510000000
  0.2777780896666666  0.8255510149999996  0.0000005810000007
  0.1666666001666667  0.4444030750000000  0.3045544694999999
  0.1666666001666667  0.1110697416666665  0.3045544694999999
 -0.0000000663333333  0.7777364083333330  0.8045544689999999
 -0.0000000663333333  0.4444030750000000  0.8045544689999999
  0.1666664916666666  0.3420810416666664  0.0000005249999999
  0.1159075811666667  0.1110696733333332  0.8477230414999999
  0.2270599046666667  0.8881995333333329  0.8188202860000001
  0.2222224431666667  0.1588842849999999  0.4999996855000004
  0.0507590936666666  0.9444030649999996  0.6522769890000001
  0.0000000001666666  0.0548662716666666  0.1376411595000001
  0.1062734681666666  0.8881996683333327  0.8188207155000000
  0.1062734496666667  0.0548661600000000  0.1811796510000000
  0.1062734681666666  0.2215330016666665  0.8188207155000000
  0.1666664916666666  0.6754143749999999  0.0000005249999999
  0.0507592471666667  0.7777365049999996  0.3477222585000000
  0.1666664916666666  0.0087477083333333  0.0000005249999999
 -0.0000001753333334  0.6754143750000001  0.5000005260000000
 -0.0000001753333334  0.3420810416666664  0.5000005260000000
 -0.0000001753333334  0.0087477083333333  0.5000005260000000
  0.0000001746666667  0.8420810749999992  0.4999994760000003
  0.0000001746666667  0.1754144083333330  0.4999994760000003
  0.0603932126666666  0.7215329649999995  0.6811791970000002
  0.0603932126666666  0.3881996316666665  0.6811791970000002
  0.0603932126666666  0.0548662983333333  0.6811791970000002
  0.1666666666666666  0.7215329383333330  0.6376411599999998
  0.1666666666666666  0.3881996049999996  0.6376411599999998
  0.1666666666666666  0.0548662716666666  0.6376411599999998
  0.0000001746666667  0.5087477416666665  0.4999994760000003
  0.0000000001666666  0.3881996049999996  0.1376411595000001
 -0.0000000513333333  0.2215329699999997  0.8623587790000000
  0.1062734496666667  0.7215328266666664  0.1811796510000000
  0.1666666666666666  0.2215329699999997  0.3623586250000000
  0.1666666666666666  0.5548663033333332  0.3623586250000000
  0.1666666666666666  0.8881996366666659  0.3623586250000000
  0.0507590936666666  0.6110697316666664  0.6522769890000001
  0.0507590936666666  0.2777363983333333  0.6522769890000001
  0.0000000746666666  0.9444031033333324  0.1954454360000002
  0.0000000746666667  0.6110697699999995  0.1954454360000000
  0.2729401346666666  0.8881996683333327  0.3188207160000000
  0.2729401346666666  0.5548663349999996  0.3188207159999998
  0.2729401161666667  0.7215328266666664  0.6811796515000000
  0.0555557766666667  0.4922176183333328 -0.0000003149999999
  0.2270599046666666  0.5548661999999999  0.8188202859999998
  0.2270599046666666  0.2215328666666666  0.8188202859999998
  0.2825742476666667  0.7777363399999995  0.3477230420000000
  0.2825742476666667  0.4444030066666666  0.3477230420000000
  0.2825742476666667  0.1110696733333332  0.3477230420000000
  0.2729401346666666  0.2215330016666665  0.3188207160000000
  0.2174259136666666  0.4444031716666661  0.8477222590000000
  0.1666667411666666  0.6110697699999995  0.6954454365000002
  0.2174259136666667  0.1110698383333331  0.8477222590000003
  0.2825741001666665  0.6110699149999999  0.6522776995000000
  0.1666667411666667  0.2777364366666663  0.6954454365000002
  0.2825741001666665  0.9444032483333330  0.6522776995000000
  0.1666667411666667  0.9444031033333324  0.6954454365000002
  0.2174257601666667  0.2777363983333334  0.1522769894999999
  0.2174257601666666  0.6110697316666662  0.1522769895000000
  0.2174257601666667  0.9444030649999996  0.1522769894999999
  0.2825741001666665  0.2777365816666667  0.6522776995000000
  0.2729401161666667  0.0548661599999998  0.6811796515000000
  0.0555552291666667  0.3255510716666663 -0.0000005174999998
  0.2729401161666667  0.3881994933333329  0.6811796515000003
  0.2270598796666667  0.0548662983333333  0.1811791960000002
  0.0000000746666666  0.2777364366666663  0.1954454360000002
  0.1159074336666667  0.6110699149999999  0.1522776990000000
  0.1159074336666667  0.2777365816666667  0.1522776990000000
  0.2222224431666667  0.8255509516666664  0.4999996855000004
  0.2222224431666667  0.4922176183333328  0.4999996855000004
  0.0507592471666667  0.4444031716666661  0.3477222584999999
  0.2777780896666666  0.4922176816666663  0.0000005810000007
  0.2270598796666667  0.3881996316666665  0.1811791960000002
  0.2777780896666666  0.1588843483333330  0.0000005810000001
  0.2777775586666668  0.9922176483333330  0.0000004589999996
  0.2777775586666668  0.6588843149999994  0.0000004589999996
  0.2777775586666668  0.3255509816666667  0.0000004589999996
  0.2222218956666666  0.9922177383333329  0.4999994830000002
  0.2222218956666666  0.6588844049999998  0.4999994830000002
  0.2222218956666666  0.3255510716666667  0.4999994830000002
  0.1666668416666666  0.8420810749999992 -0.0000005249999999
  0.1666668416666666  0.5087477416666665 -0.0000005249999999
  0.1666668416666666  0.1754144083333330 -0.0000005249999999
  0.0507592471666667  0.1110698383333331  0.3477222585000000
  0.2270598796666667  0.7215329649999995  0.1811791960000002
  0.1159074336666667  0.9444032483333326  0.1522776990000000
  0.2174259136666666  0.7777365049999996  0.8477222590000000
  0.0555552291666667  0.6588844049999998 -0.0000005174999998
  0.0555552291666667  0.9922177383333329 -0.0000005174999998
  0.1111108916666666  0.3255509816666666  0.5000004599999998
  0.4492409145000001  0.4444030066666666  0.8477230414999999
  0.6111114230000000  0.8255510149999996  0.0000005810000007
  0.3333333335000000  0.0548662716666666  0.1376411595000001
  0.4999999335000000  0.4444030750000000  0.3045544694999999
  0.4999999335000000  0.1110697416666665  0.3045544694999999
  0.3333332670000000  0.7777364083333330  0.8045544689999999
  0.3333332670000000  0.4444030750000000  0.8045544689999999
  0.4999998250000001  0.3420810416666664  0.0000005249999999
  0.4492409145000001  0.1110696733333332  0.8477230414999999
  0.5603932380000001  0.8881995333333329  0.8188202860000001
  0.5555557765000000  0.1588842849999999  0.4999996855000004
  0.3840924270000000  0.9444030649999996  0.6522769890000001
  0.3840924270000000  0.6110697316666664  0.6522769890000001
  0.3840924270000000  0.2777363983333333  0.6522769890000001
  0.3333334080000001  0.9444031033333324  0.1954454360000002
  0.3333334080000001  0.6110697699999995  0.1954454360000000
  0.3333334080000001  0.2777364366666663  0.1954454360000002
  0.4492407670000000  0.6110699149999999  0.1522776990000000
  0.4492407670000000  0.2777365816666667  0.1522776990000000
  0.5555557765000000  0.8255509516666664  0.4999996855000004
  0.5555557765000000  0.4922176183333328  0.4999996855000004
  0.4492409145000001  0.7777363399999995  0.8477230414999999
  0.3840925805000001  0.4444031716666661  0.3477222584999999
  0.3937265715000001  0.2215328666666666  0.3188202854999999
  0.3937265715000001  0.8881995333333327  0.3188202854999999
  0.3937265460000000  0.7215329649999995  0.6811791970000002
  0.3937265460000000  0.3881996316666665  0.6811791970000002
  0.3937265460000000  0.0548662983333333  0.6811791970000002
  0.5000000000000000  0.7215329383333330  0.6376411599999998
  0.5000000000000000  0.3881996049999996  0.6376411599999998
  0.5000000000000000  0.0548662716666666  0.6376411599999998
  0.3333335080000000  0.5087477416666665  0.4999994760000003
  0.3333333335000000  0.3881996049999996  0.1376411595000001
  0.3333332820000001  0.2215329699999997  0.8623587790000000
  0.4396067830000001  0.7215328266666664  0.1811796510000000
  0.5000000000000000  0.2215329699999997  0.3623586250000000
  0.5000000000000000  0.5548663033333332  0.3623586250000000
  0.5000000000000000  0.8881996366666659  0.3623586250000000
  0.4396068015000000  0.2215330016666665  0.8188207155000000
  0.4396067830000001  0.0548661600000000  0.1811796510000000
  0.4396068015000000  0.8881996683333327  0.8188207155000000
  0.4396067830000001  0.3881994933333329  0.1811796510000000
  0.3333332820000001  0.8881996366666659  0.8623587790000000
  0.4396068015000000  0.5548663349999996  0.8188207155000000
  0.3333332820000001  0.5548663033333331  0.8623587790000000
  0.4999999335000000  0.7777364083333330  0.3045544694999999
  0.3937265715000001  0.5548661999999999  0.3188202854999999
  0.3333335080000000  0.8420810749999992  0.4999994760000003
  0.6111114230000000  0.4922176816666663  0.0000005810000007
  0.6111114230000000  0.1588843483333330  0.0000005810000001
  0.6062734680000001  0.2215330016666665  0.3188207160000000
  0.5507592470000000  0.4444031716666661  0.8477222590000000
  0.5000000744999999  0.6110697699999995  0.6954454365000002
  0.5507592470000001  0.1110698383333331  0.8477222590000003
  0.6159074334999999  0.6110699149999999  0.6522776995000000
  0.5000000745000001  0.2777364366666663  0.6954454365000002
  0.6159074334999999  0.9444032483333330  0.6522776995000000
  0.5000000745000001  0.9444031033333324  0.6954454365000002
  0.5507590935000001  0.2777363983333334  0.1522769894999999
  0.5507590935000000  0.6110697316666662  0.1522769895000000
  0.5507590935000001  0.9444030649999996  0.1522769894999999
  0.6159074334999999  0.2777365816666667  0.6522776995000000
  0.0555557766666666  0.8255509516666664 -0.0000003149999999
  0.0000000001666666  0.7215329383333325  0.1376411595000001
 -0.0000000663333333  0.1110697416666665  0.8045544690000000
  0.0555557766666667  0.1588842849999999 -0.0000003149999999
  0.1111114231666667  0.8255510149999996  0.5000005805000006
  0.1111114231666667  0.4922176816666663  0.5000005805000006
  0.1111114231666667  0.1588843483333330  0.5000005805000006
  0.1111108916666666  0.9922176483333330  0.5000004599999998
  0.1111108916666666  0.6588843149999994  0.5000004599999998
  0.6159075810000000  0.1110696733333332  0.3477230420000000
  0.5603932130000001  0.3881996316666665  0.1811791960000002
  0.6159075810000000  0.4444030066666666  0.3477230420000000
  0.5603932380000000  0.2215328666666666  0.8188202859999998
  0.6111108920000000  0.9922176483333330  0.0000004589999996
  0.6111108920000000  0.6588843149999994  0.0000004589999996
  0.6111108920000000  0.3255509816666667  0.0000004589999996
  0.5555552290000000  0.9922177383333329  0.4999994830000002
  0.5555552290000000  0.6588844049999998  0.4999994830000002
  0.5555552290000000  0.3255510716666667  0.4999994830000002
  0.5000001750000000  0.8420810749999992 -0.0000005249999999
  0.5000001750000000  0.5087477416666665 -0.0000005249999999
  0.5000001750000000  0.1754144083333330 -0.0000005249999999
  0.3840925805000000  0.1110698383333331  0.3477222585000000
  0.5603932130000001  0.7215329649999995  0.1811791960000002
  0.4492407670000000  0.9444032483333326  0.1522776990000000
  0.5603932130000001  0.0548662983333333  0.1811791960000002
  0.5507592470000000  0.7777365049999996  0.8477222590000000
  0.6062734495000001  0.3881994933333329  0.6811796515000003
  0.6062734495000001  0.0548661599999998  0.6811796515000000
  0.6062734680000001  0.8881996683333327  0.3188207160000000
  0.6062734680000001  0.5548663349999996  0.3188207159999998
  0.6062734495000001  0.7215328266666664  0.6811796515000000
  0.6666666668333333  0.7215329383333325  0.1376411595000001
  0.5603932380000000  0.5548661999999999  0.8188202859999998
  0.6159075810000000  0.7777363399999995  0.3477230420000000
  0.7222224433333333  0.8255509516666664 -0.0000003149999999
